set T := N3 N5;
set CENTRAL := N1;
set D :=
	N2
	N4;

set P := 	(N1, N3) (N3, N2) (N3, N4)
      		#(N1, N4)
		(N5, N2) (N3, N5) (N5, N3)
      		#(N2, N3) (N2, N4) (N2, N5)
		#(N3, N4) (N3, N5)
		#(N4, N5)
;

param TC := 	N1 N3 7
       	 	N3 N2 5
		N3 N4 3
		N5 N2 4
		N3 N5 6
		N5 N3 10
;


set C :=
	2 3 1;


param M := 100;
param NU := 20;

param hd :=
	N2 2
	N4 1
;

param hc :=
      	 1 10
	 2 15
	 3 20;